
(set-logic ALL) 

(declare-datatype MyList ((Nil) (Cons (head Real) (tail MyList)) )) 
(declare-fun l0 () MyList) 
(declare-fun l1 () MyList) 
(declare-fun l2 () MyList) 
(declare-fun l3 () MyList) 
(declare-fun i0 () Real) 
(declare-fun i1 () Real) 
(assert (is-Cons Nil) )
(assert (= l2 l1) )
(assert (and (= l3 l2) (= l1 Nil) (is-Cons l2) (is-Cons Nil)) )
(assert (is-Cons l0) )
(assert (and (= l3 l3) (is-Nil l0) (= l3 Nil) (= l0 Nil)) )
(assert (and (= l1 l3) (is-Cons l1) (= l2 Nil)) )
(assert (= l2 Nil) )
(assert (and (= l3 l0) (= l1 Nil) (= l0 Nil)) )
(check-sat)
